c File: instances/28_0.50_1.col
c
c Description: Random graph of size 28 vertices and P(0.49999999999999994) of edges between any two vertices.
p col 28 378
e 1 3
e 1 6
e 1 7
e 1 10
e 1 12
e 1 14
e 1 15
e 1 16
e 1 17
e 1 20
e 1 24
e 1 26
e 1 28
e 2 4
e 2 5
e 2 6
e 2 8
e 2 9
e 2 10
e 2 13
e 2 15
e 2 16
e 2 17
e 2 19
e 2 20
e 2 21
e 2 22
e 2 24
e 2 26
e 3 4
e 3 6
e 3 7
e 3 10
e 3 13
e 3 15
e 3 18
e 3 21
e 3 23
e 3 25
e 3 27
e 3 28
e 4 5
e 4 7
e 4 9
e 4 10
e 4 12
e 4 14
e 4 17
e 4 20
e 4 21
e 4 22
e 4 25
e 4 28
e 5 8
e 5 11
e 5 12
e 5 16
e 5 17
e 5 23
e 5 24
e 5 25
e 5 26
e 5 27
e 5 28
e 6 10
e 6 12
e 6 14
e 6 15
e 6 18
e 6 21
e 6 22
e 6 23
e 6 27
e 7 8
e 7 9
e 7 10
e 7 11
e 7 13
e 7 15
e 7 17
e 7 18
e 7 19
e 7 21
e 7 22
e 7 27
e 7 28
e 8 9
e 8 10
e 8 11
e 8 12
e 8 13
e 8 14
e 8 16
e 8 18
e 8 20
e 8 23
e 8 24
e 8 26
e 8 27
e 9 13
e 9 15
e 9 18
e 9 21
e 9 23
e 9 24
e 9 25
e 9 28
e 10 12
e 10 13
e 10 15
e 10 16
e 10 19
e 10 21
e 10 24
e 10 27
e 11 13
e 11 16
e 11 17
e 11 18
e 11 19
e 11 23
e 11 25
e 11 27
e 12 16
e 12 18
e 12 19
e 12 22
e 12 24
e 12 25
e 12 27
e 13 14
e 13 17
e 13 20
e 13 21
e 13 22
e 13 23
e 14 16
e 14 17
e 14 23
e 14 27
e 14 28
e 15 16
e 15 17
e 15 18
e 15 22
e 15 24
e 15 26
e 16 17
e 16 18
e 16 19
e 16 21
e 16 22
e 16 26
e 16 28
e 17 18
e 17 19
e 17 20
e 17 21
e 17 22
e 17 25
e 17 28
e 18 21
e 18 23
e 18 24
e 18 25
e 18 27
e 18 28
e 19 21
e 19 22
e 19 24
e 20 21
e 20 22
e 20 23
e 21 24
e 21 25
e 21 26
e 21 28
e 22 23
e 22 25
e 23 28
e 24 25
e 24 28
e 25 26
e 25 27
e 25 28
e 27 28